(set-info :smt-lib-version 2.6)
(set-logic QF_S)
(set-info :source |
Generated by: Murphy Berzish, Mitja Kulczynski, Federico Mora, Florin Manea, Joel Day, Dirk Nowotka, Vijay Ganesh, Zhengyang Lu
Generated on: 2020-10-01
Description: Translated from a collection of real-world regex queries, AutomataArk, collected by Loris D’Antoni and Fang Wang: https://github.com/lorisdanto/automatark
Application: Evaluate solvers on real-world regex queries
Target solver: Z3str3RE, CVC4, OSTRICH, Z3seq, Z3str3, Z3-Trau
Publications: Berzish, M., Kulczynski, M., Mora, F., Manea, F., Day, J. D., Nowotka, D., & Ganesh, V. (2021, July). An SMT solver for regular expressions and linear arithmetic over string length. In CAV 2021.
|)
(set-info :license "https://creativecommons.org/licenses/by/4.0/")
(set-info :category "industrial")
(set-info :status unknown)

(declare-const X String)
(assert (not (str.in_re X (re.++ (str.to_re "//Admin/FunctionsClient/") (re.union (re.++ (str.to_re "check") re.allchar (str.to_re "txt")) (re.++ (str.to_re "Select") re.allchar (str.to_re "php")) (re.++ (str.to_re "Update") re.allchar (str.to_re "php"))) (str.to_re "/iU\u{a}")))))
(assert (not (str.in_re X (re.++ (re.* (re.union (str.to_re "-") (str.to_re "\u{22}") (str.to_re "'") (str.to_re "=") (str.to_re "/") (str.to_re "!") (str.to_re "@") (str.to_re "#") (str.to_re "%") (str.to_re "&") (str.to_re ",") (str.to_re ";") (str.to_re ":") (str.to_re "`") (str.to_re "~") (str.to_re ".") (str.to_re "$") (str.to_re "^") (str.to_re "{") (str.to_re "[") (str.to_re "(") (str.to_re "|") (str.to_re ")") (str.to_re "]") (str.to_re "}") (str.to_re "*") (str.to_re "+") (str.to_re "?") (str.to_re "\u{5c}") (re.range "0" "9") (re.range "A" "Z") (re.range "a" "z") (str.to_re "_") (str.to_re " ") (str.to_re "\u{9}") (str.to_re "\u{a}") (str.to_re "\u{c}") (str.to_re "\u{d}"))) (str.to_re "\u{a}")))))
(assert (str.in_re X (re.++ (re.+ (re.range "0" "9")) (str.to_re ".") (re.range "0" "9") (str.to_re ".") (re.range "0" "9") (re.union (str.to_re "0") (str.to_re "1")) (re.range "0" "9") (re.range "0" "3") (re.range "0" "9") (str.to_re ".") (re.range "1" "9") (re.* (re.range "0" "9")) (str.to_re "\u{a}"))))
(assert (str.in_re X (re.++ (str.to_re "}{Trojan:") (re.+ (re.union (re.range "0" "9") (re.range "A" "Z") (re.range "a" "z") (str.to_re "_"))) (str.to_re "Host:") (re.union (str.to_re " ") (str.to_re "\u{9}") (str.to_re "\u{a}") (str.to_re "\u{c}") (str.to_re "\u{d}")) (re.range "0" "9") (str.to_re ".l\u{a}"))))
(assert (not (str.in_re X (re.++ (str.to_re "//?") ((_ re.loop 32 32) (re.union (re.range "0" "9") (re.range "a" "f"))) (str.to_re "/Ui\u{a}")))))
(check-sat)

(exit)
